\Problem name: determ_eqSrcsEqSnks_10oct2025-18h10.lp

Minimize
Obj:  + 10 X_0_0 + 10 X_0_1 + 10 X_0_2 + 10 X_1_0 + 10 X_1_1 + 10 X_1_2
      + 10 X_2_0 + 10 X_2_1 + 10 X_2_2 + 10 X_3_0 + 10 X_3_1 + 10 X_3_2
      + 10 X_4_0 + 10 X_4_1 + 10 X_4_2 + 10 X_5_0 + 10 X_5_1 + 10 X_5_2
      + 10 X_6_0 + 10 X_6_1 + 10 X_6_2 + 10 X_7_0 + 10 X_7_1 + 10 X_7_2
      + 10 X_8_0 + 10 X_8_1 + 10 X_8_2 + 10 X_9_0 + 10 X_9_1 + 10 X_9_2
      + 10 X_10_0 + 10 X_10_1 + 10 X_10_2 + 10 X_11_0 + 10 X_11_1 + 10 X_11_2
      + 10 X_12_0 + 10 X_12_1 + 10 X_12_2 + 10 X_13_0 + 10 X_13_1 + 10 X_13_2
      + 10 X_14_0 + 10 X_14_1 + 10 X_14_2 + 10 X_15_0 + 10 X_15_1 + 10 X_15_2
      + 10 X_16_0 + 10 X_16_1 + 10 X_16_2 + 10 X_17_0 + 10 X_17_1 + 10 X_17_2
      + 10 X_18_0 + 10 X_18_1 + 10 X_18_2 + 10 X_19_0 + 10 X_19_1 + 10 X_19_2
      + 10 X_20_0 + 10 X_20_1 + 10 X_20_2 + 10 X_21_0 + 10 X_21_1 + 10 X_21_2
      + 10 X_22_0 + 10 X_22_1 + 10 X_22_2 + 10 X_23_0 + 10 X_23_1 + 10 X_23_2
      + 10 X_24_0 + 10 X_24_1 + 10 X_24_2 + 10 X_25_0 + 10 X_25_1 + 10 X_25_2
      + 10 X_26_0 + 10 X_26_1 + 10 X_26_2 + 10 X_27_0 + 10 X_27_1 + 10 X_27_2
      + 10 X_28_0 + 10 X_28_1 + 10 X_28_2 + 10 X_29_0 + 10 X_29_1 + 10 X_29_2
      + 10 X_30_0 + 10 X_30_1 + 10 X_30_2 + 10 X_31_0 + 10 X_31_1 + 10 X_31_2
      + 10 X_32_0 + 10 X_32_1 + 10 X_32_2 + 10 X_33_0 + 10 X_33_1 + 10 X_33_2
      + 10 X_34_0 + 10 X_34_1 + 10 X_34_2 + 10 X_35_0 + 10 X_35_1 + 10 X_35_2
      + 10 X_36_0 + 10 X_36_1 + 10 X_36_2 + 10 X_37_0 + 10 X_37_1 + 10 X_37_2
      + 10 X_38_0 + 10 X_38_1 + 10 X_38_2 + 10 X_39_0 + 10 X_39_1 + 10 X_39_2
      + 100 Y_0 + 100 Y_1 + 100 Y_2 + 100 Y_3 + 100 Y_4 + 100 Y_5 + 100 Y_6
      + 100 Y_7 + 100 Y_8 + 100 Y_9 + 100 Y_10 + 100 Y_11 + 100 Y_12
      + 100 Y_13 + 100 Y_14 + 100 Y_15 + 100 Y_16 + 100 Y_17 + 100 Y_18
      + 100 Y_19 + 100 Y_20 + 100 Y_21 + 100 Y_22 + 100 Y_23 + 100 Y_24
      + 100 Y_25 + 100 Y_26 + 100 Y_27 + 100 Y_28 + 100 Y_29 + 100 Y_30
      + 100 Y_31 + 100 Y_32 + 100 Y_33 + 100 Y_34 + 100 Y_35 + 100 Y_36
      + 100 Y_37 + 100 Y_38 + 100 Y_39
Subject To
N_0_0:  + X_0_0 + X_1_0 - X_3_0 - X_9_0 - X_34_0 + X_35_0 + X_38_0 + X_39_0 = 0
N_0_1:  + X_0_1 + X_1_1 - X_3_1 - X_9_1 - X_34_1 + X_35_1 + X_38_1 + X_39_1 = 0
N_0_2:  + X_0_2 + X_1_2 - X_3_2 - X_9_2 - X_34_2 + X_35_2 + X_38_2 + X_39_2 = 0
N_1_0:  - X_0_0 + X_2_0 + X_3_0 + X_4_0 - X_5_0 - X_13_0 = 0
N_1_1:  - X_0_1 + X_2_1 + X_3_1 + X_4_1 - X_5_1 - X_13_1 = 0
N_1_2:  - X_0_2 + X_2_2 + X_3_2 + X_4_2 - X_5_2 - X_13_2 = 0
N_2_0:  - X_2_0 + X_5_0 + X_6_0 - X_16_0 - X_36_0 + X_37_0 = 0
N_2_1:  - X_2_1 + X_5_1 + X_6_1 - X_16_1 - X_36_1 + X_37_1 = 0
N_2_2:  - X_2_2 + X_5_2 + X_6_2 - X_16_2 - X_36_2 + X_37_2 = 0
N_3_0:  - X_1_0 + X_7_0 + X_8_0 + X_9_0 - X_11_0 - X_19_0 = -73
N_3_1:  - X_1_1 + X_7_1 + X_8_1 + X_9_1 - X_11_1 - X_19_1 = -18
N_3_2:  - X_1_2 + X_7_2 + X_8_2 + X_9_2 - X_11_2 - X_19_2 = -112
N_4_0:  - X_4_0 - X_7_0 + X_10_0 + X_11_0 + X_12_0 + X_13_0 - X_14_0 - X_23_0 = 0
N_4_1:  - X_4_1 - X_7_1 + X_10_1 + X_11_1 + X_12_1 + X_13_1 - X_14_1 - X_23_1 = 0
N_4_2:  - X_4_2 - X_7_2 + X_10_2 + X_11_2 + X_12_2 + X_13_2 - X_14_2 - X_23_2 = 0
N_5_0:  - X_6_0 - X_10_0 + X_14_0 + X_15_0 + X_16_0 - X_26_0 - X_39_0 = 50
N_5_1:  - X_6_1 - X_10_1 + X_14_1 + X_15_1 + X_16_1 - X_26_1 - X_39_1 = 55
N_5_2:  - X_6_2 - X_10_2 + X_14_2 + X_15_2 + X_16_2 - X_26_2 - X_39_2 = 40
N_6_0:  - X_8_0 + X_17_0 + X_18_0 + X_19_0 - X_21_0 - X_28_0 - X_37_0 = -58
N_6_1:  - X_8_1 + X_17_1 + X_18_1 + X_19_1 - X_21_1 - X_28_1 - X_37_1 = -71
N_6_2:  - X_8_2 + X_17_2 + X_18_2 + X_19_2 - X_21_2 - X_28_2 - X_37_2 = -68
N_7_0:  - X_12_0 - X_17_0 + X_20_0 + X_21_0 + X_22_0 + X_23_0 - X_24_0
        - X_31_0 = 57
N_7_1:  - X_12_1 - X_17_1 + X_20_1 + X_21_1 + X_22_1 + X_23_1 - X_24_1
        - X_31_1 = 49
N_7_2:  - X_12_2 - X_17_2 + X_20_2 + X_21_2 + X_22_2 + X_23_2 - X_24_2
        - X_31_2 = 76
N_8_0:  - X_15_0 - X_20_0 + X_24_0 + X_25_0 + X_26_0 - X_33_0 + X_34_0
        - X_35_0 = 45
N_8_1:  - X_15_1 - X_20_1 + X_24_1 + X_25_1 + X_26_1 - X_33_1 + X_34_1
        - X_35_1 = 23
N_8_2:  - X_15_2 - X_20_2 + X_24_2 + X_25_2 + X_26_2 - X_33_2 + X_34_2
        - X_35_2 = 13
N_9_0:  - X_18_0 + X_27_0 + X_28_0 - X_30_0 = 0
N_9_1:  - X_18_1 + X_27_1 + X_28_1 - X_30_1 = 0
N_9_2:  - X_18_2 + X_27_2 + X_28_2 - X_30_2 = 0
N_10_0:  - X_22_0 - X_27_0 + X_29_0 + X_30_0 + X_31_0 - X_32_0 = 48
N_10_1:  - X_22_1 - X_27_1 + X_29_1 + X_30_1 + X_31_1 - X_32_1 = 73
N_10_2:  - X_22_2 - X_27_2 + X_29_2 + X_30_2 + X_31_2 - X_32_2 = 71
N_11_0:  - X_25_0 - X_29_0 + X_32_0 + X_33_0 + X_36_0 - X_38_0 = -69
N_11_1:  - X_25_1 - X_29_1 + X_32_1 + X_33_1 + X_36_1 - X_38_1 = -111
N_11_2:  - X_25_2 - X_29_2 + X_32_2 + X_33_2 + X_36_2 - X_38_2 = -20
A_0:  + X_0_0 + X_0_1 + X_0_2 - 600 Y_0 <= 0
A_1:  + X_1_0 + X_1_1 + X_1_2 - 600 Y_1 <= 0
A_2:  + X_2_0 + X_2_1 + X_2_2 - 600 Y_2 <= 0
A_3:  + X_3_0 + X_3_1 + X_3_2 - 600 Y_3 <= 0
A_4:  + X_4_0 + X_4_1 + X_4_2 - 600 Y_4 <= 0
A_5:  + X_5_0 + X_5_1 + X_5_2 - 600 Y_5 <= 0
A_6:  + X_6_0 + X_6_1 + X_6_2 - 600 Y_6 <= 0
A_7:  + X_7_0 + X_7_1 + X_7_2 - 600 Y_7 <= 0
A_8:  + X_8_0 + X_8_1 + X_8_2 - 600 Y_8 <= 0
A_9:  + X_9_0 + X_9_1 + X_9_2 - 600 Y_9 <= 0
A_10:  + X_10_0 + X_10_1 + X_10_2 - 600 Y_10 <= 0
A_11:  + X_11_0 + X_11_1 + X_11_2 - 600 Y_11 <= 0
A_12:  + X_12_0 + X_12_1 + X_12_2 - 600 Y_12 <= 0
A_13:  + X_13_0 + X_13_1 + X_13_2 - 600 Y_13 <= 0
A_14:  + X_14_0 + X_14_1 + X_14_2 - 600 Y_14 <= 0
A_15:  + X_15_0 + X_15_1 + X_15_2 - 600 Y_15 <= 0
A_16:  + X_16_0 + X_16_1 + X_16_2 - 600 Y_16 <= 0
A_17:  + X_17_0 + X_17_1 + X_17_2 - 600 Y_17 <= 0
A_18:  + X_18_0 + X_18_1 + X_18_2 - 600 Y_18 <= 0
A_19:  + X_19_0 + X_19_1 + X_19_2 - 600 Y_19 <= 0
A_20:  + X_20_0 + X_20_1 + X_20_2 - 600 Y_20 <= 0
A_21:  + X_21_0 + X_21_1 + X_21_2 - 600 Y_21 <= 0
A_22:  + X_22_0 + X_22_1 + X_22_2 - 600 Y_22 <= 0
A_23:  + X_23_0 + X_23_1 + X_23_2 - 600 Y_23 <= 0
A_24:  + X_24_0 + X_24_1 + X_24_2 - 600 Y_24 <= 0
A_25:  + X_25_0 + X_25_1 + X_25_2 - 600 Y_25 <= 0
A_26:  + X_26_0 + X_26_1 + X_26_2 - 600 Y_26 <= 0
A_27:  + X_27_0 + X_27_1 + X_27_2 - 600 Y_27 <= 0
A_28:  + X_28_0 + X_28_1 + X_28_2 - 600 Y_28 <= 0
A_29:  + X_29_0 + X_29_1 + X_29_2 - 600 Y_29 <= 0
A_30:  + X_30_0 + X_30_1 + X_30_2 - 600 Y_30 <= 0
A_31:  + X_31_0 + X_31_1 + X_31_2 - 600 Y_31 <= 0
A_32:  + X_32_0 + X_32_1 + X_32_2 - 600 Y_32 <= 0
A_33:  + X_33_0 + X_33_1 + X_33_2 - 600 Y_33 <= 0
A_34:  + X_34_0 + X_34_1 + X_34_2 - 100 Y_34 <= 0
A_35:  + X_35_0 + X_35_1 + X_35_2 - 100 Y_35 <= 0
A_36:  + X_36_0 + X_36_1 + X_36_2 - 100 Y_36 <= 0
A_37:  + X_37_0 + X_37_1 + X_37_2 - 100 Y_37 <= 0
A_38:  + X_38_0 + X_38_1 + X_38_2 - 100 Y_38 <= 0
A_39:  + X_39_0 + X_39_1 + X_39_2 - 100 Y_39 <= 0
K_0_0:  + X_0_0 - 200 Y_0 <= 0
K_0_1:  + X_0_1 - 200 Y_0 <= 0
K_0_2:  + X_0_2 - 200 Y_0 <= 0
K_1_0:  + X_1_0 - 200 Y_1 <= 0
K_1_1:  + X_1_1 - 200 Y_1 <= 0
K_1_2:  + X_1_2 - 200 Y_1 <= 0
K_2_0:  + X_2_0 - 200 Y_2 <= 0
K_2_1:  + X_2_1 - 200 Y_2 <= 0
K_2_2:  + X_2_2 - 200 Y_2 <= 0
K_3_0:  + X_3_0 - 200 Y_3 <= 0
K_3_1:  + X_3_1 - 200 Y_3 <= 0
K_3_2:  + X_3_2 - 200 Y_3 <= 0
K_4_0:  + X_4_0 - 200 Y_4 <= 0
K_4_1:  + X_4_1 - 200 Y_4 <= 0
K_4_2:  + X_4_2 - 200 Y_4 <= 0
K_5_0:  + X_5_0 - 200 Y_5 <= 0
K_5_1:  + X_5_1 - 200 Y_5 <= 0
K_5_2:  + X_5_2 - 200 Y_5 <= 0
K_6_0:  + X_6_0 - 200 Y_6 <= 0
K_6_1:  + X_6_1 - 200 Y_6 <= 0
K_6_2:  + X_6_2 - 200 Y_6 <= 0
K_7_0:  + X_7_0 - 200 Y_7 <= 0
K_7_1:  + X_7_1 - 200 Y_7 <= 0
K_7_2:  + X_7_2 - 200 Y_7 <= 0
K_8_0:  + X_8_0 - 200 Y_8 <= 0
K_8_1:  + X_8_1 - 200 Y_8 <= 0
K_8_2:  + X_8_2 - 200 Y_8 <= 0
K_9_0:  + X_9_0 - 200 Y_9 <= 0
K_9_1:  + X_9_1 - 200 Y_9 <= 0
K_9_2:  + X_9_2 - 200 Y_9 <= 0
K_10_0:  + X_10_0 - 200 Y_10 <= 0
K_10_1:  + X_10_1 - 200 Y_10 <= 0
K_10_2:  + X_10_2 - 200 Y_10 <= 0
K_11_0:  + X_11_0 - 200 Y_11 <= 0
K_11_1:  + X_11_1 - 200 Y_11 <= 0
K_11_2:  + X_11_2 - 200 Y_11 <= 0
K_12_0:  + X_12_0 - 200 Y_12 <= 0
K_12_1:  + X_12_1 - 200 Y_12 <= 0
K_12_2:  + X_12_2 - 200 Y_12 <= 0
K_13_0:  + X_13_0 - 200 Y_13 <= 0
K_13_1:  + X_13_1 - 200 Y_13 <= 0
K_13_2:  + X_13_2 - 200 Y_13 <= 0
K_14_0:  + X_14_0 - 200 Y_14 <= 0
K_14_1:  + X_14_1 - 200 Y_14 <= 0
K_14_2:  + X_14_2 - 200 Y_14 <= 0
K_15_0:  + X_15_0 - 200 Y_15 <= 0
K_15_1:  + X_15_1 - 200 Y_15 <= 0
K_15_2:  + X_15_2 - 200 Y_15 <= 0
K_16_0:  + X_16_0 - 200 Y_16 <= 0
K_16_1:  + X_16_1 - 200 Y_16 <= 0
K_16_2:  + X_16_2 - 200 Y_16 <= 0
K_17_0:  + X_17_0 - 200 Y_17 <= 0
K_17_1:  + X_17_1 - 200 Y_17 <= 0
K_17_2:  + X_17_2 - 200 Y_17 <= 0
K_18_0:  + X_18_0 - 200 Y_18 <= 0
K_18_1:  + X_18_1 - 200 Y_18 <= 0
K_18_2:  + X_18_2 - 200 Y_18 <= 0
K_19_0:  + X_19_0 - 200 Y_19 <= 0
K_19_1:  + X_19_1 - 200 Y_19 <= 0
K_19_2:  + X_19_2 - 200 Y_19 <= 0
K_20_0:  + X_20_0 - 200 Y_20 <= 0
K_20_1:  + X_20_1 - 200 Y_20 <= 0
K_20_2:  + X_20_2 - 200 Y_20 <= 0
K_21_0:  + X_21_0 - 200 Y_21 <= 0
K_21_1:  + X_21_1 - 200 Y_21 <= 0
K_21_2:  + X_21_2 - 200 Y_21 <= 0
K_22_0:  + X_22_0 - 200 Y_22 <= 0
K_22_1:  + X_22_1 - 200 Y_22 <= 0
K_22_2:  + X_22_2 - 200 Y_22 <= 0
K_23_0:  + X_23_0 - 200 Y_23 <= 0
K_23_1:  + X_23_1 - 200 Y_23 <= 0
K_23_2:  + X_23_2 - 200 Y_23 <= 0
K_24_0:  + X_24_0 - 200 Y_24 <= 0
K_24_1:  + X_24_1 - 200 Y_24 <= 0
K_24_2:  + X_24_2 - 200 Y_24 <= 0
K_25_0:  + X_25_0 - 200 Y_25 <= 0
K_25_1:  + X_25_1 - 200 Y_25 <= 0
K_25_2:  + X_25_2 - 200 Y_25 <= 0
K_26_0:  + X_26_0 - 200 Y_26 <= 0
K_26_1:  + X_26_1 - 200 Y_26 <= 0
K_26_2:  + X_26_2 - 200 Y_26 <= 0
K_27_0:  + X_27_0 - 200 Y_27 <= 0
K_27_1:  + X_27_1 - 200 Y_27 <= 0
K_27_2:  + X_27_2 - 200 Y_27 <= 0
K_28_0:  + X_28_0 - 200 Y_28 <= 0
K_28_1:  + X_28_1 - 200 Y_28 <= 0
K_28_2:  + X_28_2 - 200 Y_28 <= 0
K_29_0:  + X_29_0 - 200 Y_29 <= 0
K_29_1:  + X_29_1 - 200 Y_29 <= 0
K_29_2:  + X_29_2 - 200 Y_29 <= 0
K_30_0:  + X_30_0 - 200 Y_30 <= 0
K_30_1:  + X_30_1 - 200 Y_30 <= 0
K_30_2:  + X_30_2 - 200 Y_30 <= 0
K_31_0:  + X_31_0 - 200 Y_31 <= 0
K_31_1:  + X_31_1 - 200 Y_31 <= 0
K_31_2:  + X_31_2 - 200 Y_31 <= 0
K_32_0:  + X_32_0 - 200 Y_32 <= 0
K_32_1:  + X_32_1 - 200 Y_32 <= 0
K_32_2:  + X_32_2 - 200 Y_32 <= 0
K_33_0:  + X_33_0 - 200 Y_33 <= 0
K_33_1:  + X_33_1 - 200 Y_33 <= 0
K_33_2:  + X_33_2 - 200 Y_33 <= 0
K_34_0:  + X_34_0 - 100 Y_34 <= 0
K_34_1:  + X_34_1 - 100 Y_34 <= 0
K_34_2:  + X_34_2 - 100 Y_34 <= 0
K_35_0:  + X_35_0 - 100 Y_35 <= 0
K_35_1:  + X_35_1 - 100 Y_35 <= 0
K_35_2:  + X_35_2 - 100 Y_35 <= 0
K_36_0:  + X_36_0 - 100 Y_36 <= 0
K_36_1:  + X_36_1 - 100 Y_36 <= 0
K_36_2:  + X_36_2 - 100 Y_36 <= 0
K_37_0:  + X_37_0 - 100 Y_37 <= 0
K_37_1:  + X_37_1 - 100 Y_37 <= 0
K_37_2:  + X_37_2 - 100 Y_37 <= 0
K_38_0:  + X_38_0 - 100 Y_38 <= 0
K_38_1:  + X_38_1 - 100 Y_38 <= 0
K_38_2:  + X_38_2 - 100 Y_38 <= 0
K_39_0:  + X_39_0 - 100 Y_39 <= 0
K_39_1:  + X_39_1 - 100 Y_39 <= 0
K_39_2:  + X_39_2 - 100 Y_39 <= 0
Bounds
0 <= Y_0 <= 1
0 <= Y_1 <= 1
0 <= Y_2 <= 1
0 <= Y_3 <= 1
0 <= Y_4 <= 1
0 <= Y_5 <= 1
0 <= Y_6 <= 1
0 <= Y_7 <= 1
0 <= Y_8 <= 1
0 <= Y_9 <= 1
0 <= Y_10 <= 1
0 <= Y_11 <= 1
0 <= Y_12 <= 1
0 <= Y_13 <= 1
0 <= Y_14 <= 1
0 <= Y_15 <= 1
0 <= Y_16 <= 1
0 <= Y_17 <= 1
0 <= Y_18 <= 1
0 <= Y_19 <= 1
0 <= Y_20 <= 1
0 <= Y_21 <= 1
0 <= Y_22 <= 1
0 <= Y_23 <= 1
0 <= Y_24 <= 1
0 <= Y_25 <= 1
0 <= Y_26 <= 1
0 <= Y_27 <= 1
0 <= Y_28 <= 1
0 <= Y_29 <= 1
0 <= Y_30 <= 1
0 <= Y_31 <= 1
0 <= Y_32 <= 1
0 <= Y_33 <= 1
0 <= Y_34 <= 1
0 <= Y_35 <= 1
0 <= Y_36 <= 1
0 <= Y_37 <= 1
0 <= Y_38 <= 1
0 <= Y_39 <= 1
Binaries
Y_0 Y_1 Y_2 Y_3 Y_4 Y_5 Y_6 Y_7 Y_8 Y_9 Y_10 Y_11 Y_12 Y_13 Y_14 Y_15 Y_16 
Y_17 Y_18 Y_19 Y_20 Y_21 Y_22 Y_23 Y_24 Y_25 Y_26 Y_27 Y_28 Y_29 Y_30 Y_31 
Y_32 Y_33 Y_34 Y_35 Y_36 Y_37 Y_38 Y_39 
End
