NAME  determ_eqSrcsEqSnks_10oct2025-18h10.mps

ROWS  determ_eqSrcsEqSnks_10oct2025-18h10.mps

 N  Obj
 E  N_0_0
 E  N_0_1
 E  N_0_2
 E  N_1_0
 E  N_1_1
 E  N_1_2
 E  N_2_0
 E  N_2_1
 E  N_2_2
 E  N_3_0
 E  N_3_1
 E  N_3_2
 E  N_4_0
 E  N_4_1
 E  N_4_2
 E  N_5_0
 E  N_5_1
 E  N_5_2
 E  N_6_0
 E  N_6_1
 E  N_6_2
 E  N_7_0
 E  N_7_1
 E  N_7_2
 E  N_8_0
 E  N_8_1
 E  N_8_2
 E  N_9_0
 E  N_9_1
 E  N_9_2
 E  N_10_0
 E  N_10_1
 E  N_10_2
 E  N_11_0
 E  N_11_1
 E  N_11_2
 L  A_0
 L  A_1
 L  A_2
 L  A_3
 L  A_4
 L  A_5
 L  A_6
 L  A_7
 L  A_8
 L  A_9
 L  A_10
 L  A_11
 L  A_12
 L  A_13
 L  A_14
 L  A_15
 L  A_16
 L  A_17
 L  A_18
 L  A_19
 L  A_20
 L  A_21
 L  A_22
 L  A_23
 L  A_24
 L  A_25
 L  A_26
 L  A_27
 L  A_28
 L  A_29
 L  A_30
 L  A_31
 L  A_32
 L  A_33
 L  A_34
 L  A_35
 L  A_36
 L  A_37
 L  A_38
 L  A_39
 L  K_0_0
 L  K_0_1
 L  K_0_2
 L  K_1_0
 L  K_1_1
 L  K_1_2
 L  K_2_0
 L  K_2_1
 L  K_2_2
 L  K_3_0
 L  K_3_1
 L  K_3_2
 L  K_4_0
 L  K_4_1
 L  K_4_2
 L  K_5_0
 L  K_5_1
 L  K_5_2
 L  K_6_0
 L  K_6_1
 L  K_6_2
 L  K_7_0
 L  K_7_1
 L  K_7_2
 L  K_8_0
 L  K_8_1
 L  K_8_2
 L  K_9_0
 L  K_9_1
 L  K_9_2
 L  K_10_0
 L  K_10_1
 L  K_10_2
 L  K_11_0
 L  K_11_1
 L  K_11_2
 L  K_12_0
 L  K_12_1
 L  K_12_2
 L  K_13_0
 L  K_13_1
 L  K_13_2
 L  K_14_0
 L  K_14_1
 L  K_14_2
 L  K_15_0
 L  K_15_1
 L  K_15_2
 L  K_16_0
 L  K_16_1
 L  K_16_2
 L  K_17_0
 L  K_17_1
 L  K_17_2
 L  K_18_0
 L  K_18_1
 L  K_18_2
 L  K_19_0
 L  K_19_1
 L  K_19_2
 L  K_20_0
 L  K_20_1
 L  K_20_2
 L  K_21_0
 L  K_21_1
 L  K_21_2
 L  K_22_0
 L  K_22_1
 L  K_22_2
 L  K_23_0
 L  K_23_1
 L  K_23_2
 L  K_24_0
 L  K_24_1
 L  K_24_2
 L  K_25_0
 L  K_25_1
 L  K_25_2
 L  K_26_0
 L  K_26_1
 L  K_26_2
 L  K_27_0
 L  K_27_1
 L  K_27_2
 L  K_28_0
 L  K_28_1
 L  K_28_2
 L  K_29_0
 L  K_29_1
 L  K_29_2
 L  K_30_0
 L  K_30_1
 L  K_30_2
 L  K_31_0
 L  K_31_1
 L  K_31_2
 L  K_32_0
 L  K_32_1
 L  K_32_2
 L  K_33_0
 L  K_33_1
 L  K_33_2
 L  K_34_0
 L  K_34_1
 L  K_34_2
 L  K_35_0
 L  K_35_1
 L  K_35_2
 L  K_36_0
 L  K_36_1
 L  K_36_2
 L  K_37_0
 L  K_37_1
 L  K_37_2
 L  K_38_0
 L  K_38_1
 L  K_38_2
 L  K_39_0
 L  K_39_1
 L  K_39_2
COLUMNS
    X_0_0       Obj            10        
    X_0_0       N_0_0          1         
    X_0_0       N_1_0          -1        
    X_0_0       A_0            1         
    X_0_0       K_0_0          1         
    X_0_1       Obj            10        
    X_0_1       N_0_1          1         
    X_0_1       N_1_1          -1        
    X_0_1       A_0            1         
    X_0_1       K_0_1          1         
    X_0_2       Obj            10        
    X_0_2       N_0_2          1         
    X_0_2       N_1_2          -1        
    X_0_2       A_0            1         
    X_0_2       K_0_2          1         
    X_1_0       Obj            10        
    X_1_0       N_0_0          1         
    X_1_0       N_3_0          -1        
    X_1_0       A_1            1         
    X_1_0       K_1_0          1         
    X_1_1       Obj            10        
    X_1_1       N_0_1          1         
    X_1_1       N_3_1          -1        
    X_1_1       A_1            1         
    X_1_1       K_1_1          1         
    X_1_2       Obj            10        
    X_1_2       N_0_2          1         
    X_1_2       N_3_2          -1        
    X_1_2       A_1            1         
    X_1_2       K_1_2          1         
    X_2_0       Obj            10        
    X_2_0       N_1_0          1         
    X_2_0       N_2_0          -1        
    X_2_0       A_2            1         
    X_2_0       K_2_0          1         
    X_2_1       Obj            10        
    X_2_1       N_1_1          1         
    X_2_1       N_2_1          -1        
    X_2_1       A_2            1         
    X_2_1       K_2_1          1         
    X_2_2       Obj            10        
    X_2_2       N_1_2          1         
    X_2_2       N_2_2          -1        
    X_2_2       A_2            1         
    X_2_2       K_2_2          1         
    X_3_0       Obj            10        
    X_3_0       N_0_0          -1        
    X_3_0       N_1_0          1         
    X_3_0       A_3            1         
    X_3_0       K_3_0          1         
    X_3_1       Obj            10        
    X_3_1       N_0_1          -1        
    X_3_1       N_1_1          1         
    X_3_1       A_3            1         
    X_3_1       K_3_1          1         
    X_3_2       Obj            10        
    X_3_2       N_0_2          -1        
    X_3_2       N_1_2          1         
    X_3_2       A_3            1         
    X_3_2       K_3_2          1         
    X_4_0       Obj            10        
    X_4_0       N_1_0          1         
    X_4_0       N_4_0          -1        
    X_4_0       A_4            1         
    X_4_0       K_4_0          1         
    X_4_1       Obj            10        
    X_4_1       N_1_1          1         
    X_4_1       N_4_1          -1        
    X_4_1       A_4            1         
    X_4_1       K_4_1          1         
    X_4_2       Obj            10        
    X_4_2       N_1_2          1         
    X_4_2       N_4_2          -1        
    X_4_2       A_4            1         
    X_4_2       K_4_2          1         
    X_5_0       Obj            10        
    X_5_0       N_1_0          -1        
    X_5_0       N_2_0          1         
    X_5_0       A_5            1         
    X_5_0       K_5_0          1         
    X_5_1       Obj            10        
    X_5_1       N_1_1          -1        
    X_5_1       N_2_1          1         
    X_5_1       A_5            1         
    X_5_1       K_5_1          1         
    X_5_2       Obj            10        
    X_5_2       N_1_2          -1        
    X_5_2       N_2_2          1         
    X_5_2       A_5            1         
    X_5_2       K_5_2          1         
    X_6_0       Obj            10        
    X_6_0       N_2_0          1         
    X_6_0       N_5_0          -1        
    X_6_0       A_6            1         
    X_6_0       K_6_0          1         
    X_6_1       Obj            10        
    X_6_1       N_2_1          1         
    X_6_1       N_5_1          -1        
    X_6_1       A_6            1         
    X_6_1       K_6_1          1         
    X_6_2       Obj            10        
    X_6_2       N_2_2          1         
    X_6_2       N_5_2          -1        
    X_6_2       A_6            1         
    X_6_2       K_6_2          1         
    X_7_0       Obj            10        
    X_7_0       N_3_0          1         
    X_7_0       N_4_0          -1        
    X_7_0       A_7            1         
    X_7_0       K_7_0          1         
    X_7_1       Obj            10        
    X_7_1       N_3_1          1         
    X_7_1       N_4_1          -1        
    X_7_1       A_7            1         
    X_7_1       K_7_1          1         
    X_7_2       Obj            10        
    X_7_2       N_3_2          1         
    X_7_2       N_4_2          -1        
    X_7_2       A_7            1         
    X_7_2       K_7_2          1         
    X_8_0       Obj            10        
    X_8_0       N_3_0          1         
    X_8_0       N_6_0          -1        
    X_8_0       A_8            1         
    X_8_0       K_8_0          1         
    X_8_1       Obj            10        
    X_8_1       N_3_1          1         
    X_8_1       N_6_1          -1        
    X_8_1       A_8            1         
    X_8_1       K_8_1          1         
    X_8_2       Obj            10        
    X_8_2       N_3_2          1         
    X_8_2       N_6_2          -1        
    X_8_2       A_8            1         
    X_8_2       K_8_2          1         
    X_9_0       Obj            10        
    X_9_0       N_0_0          -1        
    X_9_0       N_3_0          1         
    X_9_0       A_9            1         
    X_9_0       K_9_0          1         
    X_9_1       Obj            10        
    X_9_1       N_0_1          -1        
    X_9_1       N_3_1          1         
    X_9_1       A_9            1         
    X_9_1       K_9_1          1         
    X_9_2       Obj            10        
    X_9_2       N_0_2          -1        
    X_9_2       N_3_2          1         
    X_9_2       A_9            1         
    X_9_2       K_9_2          1         
    X_10_0      Obj            10        
    X_10_0      N_4_0          1         
    X_10_0      N_5_0          -1        
    X_10_0      A_10           1         
    X_10_0      K_10_0         1         
    X_10_1      Obj            10        
    X_10_1      N_4_1          1         
    X_10_1      N_5_1          -1        
    X_10_1      A_10           1         
    X_10_1      K_10_1         1         
    X_10_2      Obj            10        
    X_10_2      N_4_2          1         
    X_10_2      N_5_2          -1        
    X_10_2      A_10           1         
    X_10_2      K_10_2         1         
    X_11_0      Obj            10        
    X_11_0      N_3_0          -1        
    X_11_0      N_4_0          1         
    X_11_0      A_11           1         
    X_11_0      K_11_0         1         
    X_11_1      Obj            10        
    X_11_1      N_3_1          -1        
    X_11_1      N_4_1          1         
    X_11_1      A_11           1         
    X_11_1      K_11_1         1         
    X_11_2      Obj            10        
    X_11_2      N_3_2          -1        
    X_11_2      N_4_2          1         
    X_11_2      A_11           1         
    X_11_2      K_11_2         1         
    X_12_0      Obj            10        
    X_12_0      N_4_0          1         
    X_12_0      N_7_0          -1        
    X_12_0      A_12           1         
    X_12_0      K_12_0         1         
    X_12_1      Obj            10        
    X_12_1      N_4_1          1         
    X_12_1      N_7_1          -1        
    X_12_1      A_12           1         
    X_12_1      K_12_1         1         
    X_12_2      Obj            10        
    X_12_2      N_4_2          1         
    X_12_2      N_7_2          -1        
    X_12_2      A_12           1         
    X_12_2      K_12_2         1         
    X_13_0      Obj            10        
    X_13_0      N_1_0          -1        
    X_13_0      N_4_0          1         
    X_13_0      A_13           1         
    X_13_0      K_13_0         1         
    X_13_1      Obj            10        
    X_13_1      N_1_1          -1        
    X_13_1      N_4_1          1         
    X_13_1      A_13           1         
    X_13_1      K_13_1         1         
    X_13_2      Obj            10        
    X_13_2      N_1_2          -1        
    X_13_2      N_4_2          1         
    X_13_2      A_13           1         
    X_13_2      K_13_2         1         
    X_14_0      Obj            10        
    X_14_0      N_4_0          -1        
    X_14_0      N_5_0          1         
    X_14_0      A_14           1         
    X_14_0      K_14_0         1         
    X_14_1      Obj            10        
    X_14_1      N_4_1          -1        
    X_14_1      N_5_1          1         
    X_14_1      A_14           1         
    X_14_1      K_14_1         1         
    X_14_2      Obj            10        
    X_14_2      N_4_2          -1        
    X_14_2      N_5_2          1         
    X_14_2      A_14           1         
    X_14_2      K_14_2         1         
    X_15_0      Obj            10        
    X_15_0      N_5_0          1         
    X_15_0      N_8_0          -1        
    X_15_0      A_15           1         
    X_15_0      K_15_0         1         
    X_15_1      Obj            10        
    X_15_1      N_5_1          1         
    X_15_1      N_8_1          -1        
    X_15_1      A_15           1         
    X_15_1      K_15_1         1         
    X_15_2      Obj            10        
    X_15_2      N_5_2          1         
    X_15_2      N_8_2          -1        
    X_15_2      A_15           1         
    X_15_2      K_15_2         1         
    X_16_0      Obj            10        
    X_16_0      N_2_0          -1        
    X_16_0      N_5_0          1         
    X_16_0      A_16           1         
    X_16_0      K_16_0         1         
    X_16_1      Obj            10        
    X_16_1      N_2_1          -1        
    X_16_1      N_5_1          1         
    X_16_1      A_16           1         
    X_16_1      K_16_1         1         
    X_16_2      Obj            10        
    X_16_2      N_2_2          -1        
    X_16_2      N_5_2          1         
    X_16_2      A_16           1         
    X_16_2      K_16_2         1         
    X_17_0      Obj            10        
    X_17_0      N_6_0          1         
    X_17_0      N_7_0          -1        
    X_17_0      A_17           1         
    X_17_0      K_17_0         1         
    X_17_1      Obj            10        
    X_17_1      N_6_1          1         
    X_17_1      N_7_1          -1        
    X_17_1      A_17           1         
    X_17_1      K_17_1         1         
    X_17_2      Obj            10        
    X_17_2      N_6_2          1         
    X_17_2      N_7_2          -1        
    X_17_2      A_17           1         
    X_17_2      K_17_2         1         
    X_18_0      Obj            10        
    X_18_0      N_6_0          1         
    X_18_0      N_9_0          -1        
    X_18_0      A_18           1         
    X_18_0      K_18_0         1         
    X_18_1      Obj            10        
    X_18_1      N_6_1          1         
    X_18_1      N_9_1          -1        
    X_18_1      A_18           1         
    X_18_1      K_18_1         1         
    X_18_2      Obj            10        
    X_18_2      N_6_2          1         
    X_18_2      N_9_2          -1        
    X_18_2      A_18           1         
    X_18_2      K_18_2         1         
    X_19_0      Obj            10        
    X_19_0      N_3_0          -1        
    X_19_0      N_6_0          1         
    X_19_0      A_19           1         
    X_19_0      K_19_0         1         
    X_19_1      Obj            10        
    X_19_1      N_3_1          -1        
    X_19_1      N_6_1          1         
    X_19_1      A_19           1         
    X_19_1      K_19_1         1         
    X_19_2      Obj            10        
    X_19_2      N_3_2          -1        
    X_19_2      N_6_2          1         
    X_19_2      A_19           1         
    X_19_2      K_19_2         1         
    X_20_0      Obj            10        
    X_20_0      N_7_0          1         
    X_20_0      N_8_0          -1        
    X_20_0      A_20           1         
    X_20_0      K_20_0         1         
    X_20_1      Obj            10        
    X_20_1      N_7_1          1         
    X_20_1      N_8_1          -1        
    X_20_1      A_20           1         
    X_20_1      K_20_1         1         
    X_20_2      Obj            10        
    X_20_2      N_7_2          1         
    X_20_2      N_8_2          -1        
    X_20_2      A_20           1         
    X_20_2      K_20_2         1         
    X_21_0      Obj            10        
    X_21_0      N_6_0          -1        
    X_21_0      N_7_0          1         
    X_21_0      A_21           1         
    X_21_0      K_21_0         1         
    X_21_1      Obj            10        
    X_21_1      N_6_1          -1        
    X_21_1      N_7_1          1         
    X_21_1      A_21           1         
    X_21_1      K_21_1         1         
    X_21_2      Obj            10        
    X_21_2      N_6_2          -1        
    X_21_2      N_7_2          1         
    X_21_2      A_21           1         
    X_21_2      K_21_2         1         
    X_22_0      Obj            10        
    X_22_0      N_7_0          1         
    X_22_0      N_10_0         -1        
    X_22_0      A_22           1         
    X_22_0      K_22_0         1         
    X_22_1      Obj            10        
    X_22_1      N_7_1          1         
    X_22_1      N_10_1         -1        
    X_22_1      A_22           1         
    X_22_1      K_22_1         1         
    X_22_2      Obj            10        
    X_22_2      N_7_2          1         
    X_22_2      N_10_2         -1        
    X_22_2      A_22           1         
    X_22_2      K_22_2         1         
    X_23_0      Obj            10        
    X_23_0      N_4_0          -1        
    X_23_0      N_7_0          1         
    X_23_0      A_23           1         
    X_23_0      K_23_0         1         
    X_23_1      Obj            10        
    X_23_1      N_4_1          -1        
    X_23_1      N_7_1          1         
    X_23_1      A_23           1         
    X_23_1      K_23_1         1         
    X_23_2      Obj            10        
    X_23_2      N_4_2          -1        
    X_23_2      N_7_2          1         
    X_23_2      A_23           1         
    X_23_2      K_23_2         1         
    X_24_0      Obj            10        
    X_24_0      N_7_0          -1        
    X_24_0      N_8_0          1         
    X_24_0      A_24           1         
    X_24_0      K_24_0         1         
    X_24_1      Obj            10        
    X_24_1      N_7_1          -1        
    X_24_1      N_8_1          1         
    X_24_1      A_24           1         
    X_24_1      K_24_1         1         
    X_24_2      Obj            10        
    X_24_2      N_7_2          -1        
    X_24_2      N_8_2          1         
    X_24_2      A_24           1         
    X_24_2      K_24_2         1         
    X_25_0      Obj            10        
    X_25_0      N_8_0          1         
    X_25_0      N_11_0         -1        
    X_25_0      A_25           1         
    X_25_0      K_25_0         1         
    X_25_1      Obj            10        
    X_25_1      N_8_1          1         
    X_25_1      N_11_1         -1        
    X_25_1      A_25           1         
    X_25_1      K_25_1         1         
    X_25_2      Obj            10        
    X_25_2      N_8_2          1         
    X_25_2      N_11_2         -1        
    X_25_2      A_25           1         
    X_25_2      K_25_2         1         
    X_26_0      Obj            10        
    X_26_0      N_5_0          -1        
    X_26_0      N_8_0          1         
    X_26_0      A_26           1         
    X_26_0      K_26_0         1         
    X_26_1      Obj            10        
    X_26_1      N_5_1          -1        
    X_26_1      N_8_1          1         
    X_26_1      A_26           1         
    X_26_1      K_26_1         1         
    X_26_2      Obj            10        
    X_26_2      N_5_2          -1        
    X_26_2      N_8_2          1         
    X_26_2      A_26           1         
    X_26_2      K_26_2         1         
    X_27_0      Obj            10        
    X_27_0      N_9_0          1         
    X_27_0      N_10_0         -1        
    X_27_0      A_27           1         
    X_27_0      K_27_0         1         
    X_27_1      Obj            10        
    X_27_1      N_9_1          1         
    X_27_1      N_10_1         -1        
    X_27_1      A_27           1         
    X_27_1      K_27_1         1         
    X_27_2      Obj            10        
    X_27_2      N_9_2          1         
    X_27_2      N_10_2         -1        
    X_27_2      A_27           1         
    X_27_2      K_27_2         1         
    X_28_0      Obj            10        
    X_28_0      N_6_0          -1        
    X_28_0      N_9_0          1         
    X_28_0      A_28           1         
    X_28_0      K_28_0         1         
    X_28_1      Obj            10        
    X_28_1      N_6_1          -1        
    X_28_1      N_9_1          1         
    X_28_1      A_28           1         
    X_28_1      K_28_1         1         
    X_28_2      Obj            10        
    X_28_2      N_6_2          -1        
    X_28_2      N_9_2          1         
    X_28_2      A_28           1         
    X_28_2      K_28_2         1         
    X_29_0      Obj            10        
    X_29_0      N_10_0         1         
    X_29_0      N_11_0         -1        
    X_29_0      A_29           1         
    X_29_0      K_29_0         1         
    X_29_1      Obj            10        
    X_29_1      N_10_1         1         
    X_29_1      N_11_1         -1        
    X_29_1      A_29           1         
    X_29_1      K_29_1         1         
    X_29_2      Obj            10        
    X_29_2      N_10_2         1         
    X_29_2      N_11_2         -1        
    X_29_2      A_29           1         
    X_29_2      K_29_2         1         
    X_30_0      Obj            10        
    X_30_0      N_9_0          -1        
    X_30_0      N_10_0         1         
    X_30_0      A_30           1         
    X_30_0      K_30_0         1         
    X_30_1      Obj            10        
    X_30_1      N_9_1          -1        
    X_30_1      N_10_1         1         
    X_30_1      A_30           1         
    X_30_1      K_30_1         1         
    X_30_2      Obj            10        
    X_30_2      N_9_2          -1        
    X_30_2      N_10_2         1         
    X_30_2      A_30           1         
    X_30_2      K_30_2         1         
    X_31_0      Obj            10        
    X_31_0      N_7_0          -1        
    X_31_0      N_10_0         1         
    X_31_0      A_31           1         
    X_31_0      K_31_0         1         
    X_31_1      Obj            10        
    X_31_1      N_7_1          -1        
    X_31_1      N_10_1         1         
    X_31_1      A_31           1         
    X_31_1      K_31_1         1         
    X_31_2      Obj            10        
    X_31_2      N_7_2          -1        
    X_31_2      N_10_2         1         
    X_31_2      A_31           1         
    X_31_2      K_31_2         1         
    X_32_0      Obj            10        
    X_32_0      N_10_0         -1        
    X_32_0      N_11_0         1         
    X_32_0      A_32           1         
    X_32_0      K_32_0         1         
    X_32_1      Obj            10        
    X_32_1      N_10_1         -1        
    X_32_1      N_11_1         1         
    X_32_1      A_32           1         
    X_32_1      K_32_1         1         
    X_32_2      Obj            10        
    X_32_2      N_10_2         -1        
    X_32_2      N_11_2         1         
    X_32_2      A_32           1         
    X_32_2      K_32_2         1         
    X_33_0      Obj            10        
    X_33_0      N_8_0          -1        
    X_33_0      N_11_0         1         
    X_33_0      A_33           1         
    X_33_0      K_33_0         1         
    X_33_1      Obj            10        
    X_33_1      N_8_1          -1        
    X_33_1      N_11_1         1         
    X_33_1      A_33           1         
    X_33_1      K_33_1         1         
    X_33_2      Obj            10        
    X_33_2      N_8_2          -1        
    X_33_2      N_11_2         1         
    X_33_2      A_33           1         
    X_33_2      K_33_2         1         
    X_34_0      Obj            10        
    X_34_0      N_0_0          -1        
    X_34_0      N_8_0          1         
    X_34_0      A_34           1         
    X_34_0      K_34_0         1         
    X_34_1      Obj            10        
    X_34_1      N_0_1          -1        
    X_34_1      N_8_1          1         
    X_34_1      A_34           1         
    X_34_1      K_34_1         1         
    X_34_2      Obj            10        
    X_34_2      N_0_2          -1        
    X_34_2      N_8_2          1         
    X_34_2      A_34           1         
    X_34_2      K_34_2         1         
    X_35_0      Obj            10        
    X_35_0      N_0_0          1         
    X_35_0      N_8_0          -1        
    X_35_0      A_35           1         
    X_35_0      K_35_0         1         
    X_35_1      Obj            10        
    X_35_1      N_0_1          1         
    X_35_1      N_8_1          -1        
    X_35_1      A_35           1         
    X_35_1      K_35_1         1         
    X_35_2      Obj            10        
    X_35_2      N_0_2          1         
    X_35_2      N_8_2          -1        
    X_35_2      A_35           1         
    X_35_2      K_35_2         1         
    X_36_0      Obj            10        
    X_36_0      N_2_0          -1        
    X_36_0      N_11_0         1         
    X_36_0      A_36           1         
    X_36_0      K_36_0         1         
    X_36_1      Obj            10        
    X_36_1      N_2_1          -1        
    X_36_1      N_11_1         1         
    X_36_1      A_36           1         
    X_36_1      K_36_1         1         
    X_36_2      Obj            10        
    X_36_2      N_2_2          -1        
    X_36_2      N_11_2         1         
    X_36_2      A_36           1         
    X_36_2      K_36_2         1         
    X_37_0      Obj            10        
    X_37_0      N_2_0          1         
    X_37_0      N_6_0          -1        
    X_37_0      A_37           1         
    X_37_0      K_37_0         1         
    X_37_1      Obj            10        
    X_37_1      N_2_1          1         
    X_37_1      N_6_1          -1        
    X_37_1      A_37           1         
    X_37_1      K_37_1         1         
    X_37_2      Obj            10        
    X_37_2      N_2_2          1         
    X_37_2      N_6_2          -1        
    X_37_2      A_37           1         
    X_37_2      K_37_2         1         
    X_38_0      Obj            10        
    X_38_0      N_0_0          1         
    X_38_0      N_11_0         -1        
    X_38_0      A_38           1         
    X_38_0      K_38_0         1         
    X_38_1      Obj            10        
    X_38_1      N_0_1          1         
    X_38_1      N_11_1         -1        
    X_38_1      A_38           1         
    X_38_1      K_38_1         1         
    X_38_2      Obj            10        
    X_38_2      N_0_2          1         
    X_38_2      N_11_2         -1        
    X_38_2      A_38           1         
    X_38_2      K_38_2         1         
    X_39_0      Obj            10        
    X_39_0      N_0_0          1         
    X_39_0      N_5_0          -1        
    X_39_0      A_39           1         
    X_39_0      K_39_0         1         
    X_39_1      Obj            10        
    X_39_1      N_0_1          1         
    X_39_1      N_5_1          -1        
    X_39_1      A_39           1         
    X_39_1      K_39_1         1         
    X_39_2      Obj            10        
    X_39_2      N_0_2          1         
    X_39_2      N_5_2          -1        
    X_39_2      A_39           1         
    X_39_2      K_39_2         1         
    MARK0000  'MARKER'                 'INTORG'
    Y_0         Obj            100       
    Y_0         A_0            -600      
    Y_0         K_0_0          -200      
    Y_0         K_0_1          -200      
    Y_0         K_0_2          -200      
    Y_1         Obj            100       
    Y_1         A_1            -600      
    Y_1         K_1_0          -200      
    Y_1         K_1_1          -200      
    Y_1         K_1_2          -200      
    Y_2         Obj            100       
    Y_2         A_2            -600      
    Y_2         K_2_0          -200      
    Y_2         K_2_1          -200      
    Y_2         K_2_2          -200      
    Y_3         Obj            100       
    Y_3         A_3            -600      
    Y_3         K_3_0          -200      
    Y_3         K_3_1          -200      
    Y_3         K_3_2          -200      
    Y_4         Obj            100       
    Y_4         A_4            -600      
    Y_4         K_4_0          -200      
    Y_4         K_4_1          -200      
    Y_4         K_4_2          -200      
    Y_5         Obj            100       
    Y_5         A_5            -600      
    Y_5         K_5_0          -200      
    Y_5         K_5_1          -200      
    Y_5         K_5_2          -200      
    Y_6         Obj            100       
    Y_6         A_6            -600      
    Y_6         K_6_0          -200      
    Y_6         K_6_1          -200      
    Y_6         K_6_2          -200      
    Y_7         Obj            100       
    Y_7         A_7            -600      
    Y_7         K_7_0          -200      
    Y_7         K_7_1          -200      
    Y_7         K_7_2          -200      
    Y_8         Obj            100       
    Y_8         A_8            -600      
    Y_8         K_8_0          -200      
    Y_8         K_8_1          -200      
    Y_8         K_8_2          -200      
    Y_9         Obj            100       
    Y_9         A_9            -600      
    Y_9         K_9_0          -200      
    Y_9         K_9_1          -200      
    Y_9         K_9_2          -200      
    Y_10        Obj            100       
    Y_10        A_10           -600      
    Y_10        K_10_0         -200      
    Y_10        K_10_1         -200      
    Y_10        K_10_2         -200      
    Y_11        Obj            100       
    Y_11        A_11           -600      
    Y_11        K_11_0         -200      
    Y_11        K_11_1         -200      
    Y_11        K_11_2         -200      
    Y_12        Obj            100       
    Y_12        A_12           -600      
    Y_12        K_12_0         -200      
    Y_12        K_12_1         -200      
    Y_12        K_12_2         -200      
    Y_13        Obj            100       
    Y_13        A_13           -600      
    Y_13        K_13_0         -200      
    Y_13        K_13_1         -200      
    Y_13        K_13_2         -200      
    Y_14        Obj            100       
    Y_14        A_14           -600      
    Y_14        K_14_0         -200      
    Y_14        K_14_1         -200      
    Y_14        K_14_2         -200      
    Y_15        Obj            100       
    Y_15        A_15           -600      
    Y_15        K_15_0         -200      
    Y_15        K_15_1         -200      
    Y_15        K_15_2         -200      
    Y_16        Obj            100       
    Y_16        A_16           -600      
    Y_16        K_16_0         -200      
    Y_16        K_16_1         -200      
    Y_16        K_16_2         -200      
    Y_17        Obj            100       
    Y_17        A_17           -600      
    Y_17        K_17_0         -200      
    Y_17        K_17_1         -200      
    Y_17        K_17_2         -200      
    Y_18        Obj            100       
    Y_18        A_18           -600      
    Y_18        K_18_0         -200      
    Y_18        K_18_1         -200      
    Y_18        K_18_2         -200      
    Y_19        Obj            100       
    Y_19        A_19           -600      
    Y_19        K_19_0         -200      
    Y_19        K_19_1         -200      
    Y_19        K_19_2         -200      
    Y_20        Obj            100       
    Y_20        A_20           -600      
    Y_20        K_20_0         -200      
    Y_20        K_20_1         -200      
    Y_20        K_20_2         -200      
    Y_21        Obj            100       
    Y_21        A_21           -600      
    Y_21        K_21_0         -200      
    Y_21        K_21_1         -200      
    Y_21        K_21_2         -200      
    Y_22        Obj            100       
    Y_22        A_22           -600      
    Y_22        K_22_0         -200      
    Y_22        K_22_1         -200      
    Y_22        K_22_2         -200      
    Y_23        Obj            100       
    Y_23        A_23           -600      
    Y_23        K_23_0         -200      
    Y_23        K_23_1         -200      
    Y_23        K_23_2         -200      
    Y_24        Obj            100       
    Y_24        A_24           -600      
    Y_24        K_24_0         -200      
    Y_24        K_24_1         -200      
    Y_24        K_24_2         -200      
    Y_25        Obj            100       
    Y_25        A_25           -600      
    Y_25        K_25_0         -200      
    Y_25        K_25_1         -200      
    Y_25        K_25_2         -200      
    Y_26        Obj            100       
    Y_26        A_26           -600      
    Y_26        K_26_0         -200      
    Y_26        K_26_1         -200      
    Y_26        K_26_2         -200      
    Y_27        Obj            100       
    Y_27        A_27           -600      
    Y_27        K_27_0         -200      
    Y_27        K_27_1         -200      
    Y_27        K_27_2         -200      
    Y_28        Obj            100       
    Y_28        A_28           -600      
    Y_28        K_28_0         -200      
    Y_28        K_28_1         -200      
    Y_28        K_28_2         -200      
    Y_29        Obj            100       
    Y_29        A_29           -600      
    Y_29        K_29_0         -200      
    Y_29        K_29_1         -200      
    Y_29        K_29_2         -200      
    Y_30        Obj            100       
    Y_30        A_30           -600      
    Y_30        K_30_0         -200      
    Y_30        K_30_1         -200      
    Y_30        K_30_2         -200      
    Y_31        Obj            100       
    Y_31        A_31           -600      
    Y_31        K_31_0         -200      
    Y_31        K_31_1         -200      
    Y_31        K_31_2         -200      
    Y_32        Obj            100       
    Y_32        A_32           -600      
    Y_32        K_32_0         -200      
    Y_32        K_32_1         -200      
    Y_32        K_32_2         -200      
    Y_33        Obj            100       
    Y_33        A_33           -600      
    Y_33        K_33_0         -200      
    Y_33        K_33_1         -200      
    Y_33        K_33_2         -200      
    Y_34        Obj            100       
    Y_34        A_34           -100      
    Y_34        K_34_0         -100      
    Y_34        K_34_1         -100      
    Y_34        K_34_2         -100      
    Y_35        Obj            100       
    Y_35        A_35           -100      
    Y_35        K_35_0         -100      
    Y_35        K_35_1         -100      
    Y_35        K_35_2         -100      
    Y_36        Obj            100       
    Y_36        A_36           -100      
    Y_36        K_36_0         -100      
    Y_36        K_36_1         -100      
    Y_36        K_36_2         -100      
    Y_37        Obj            100       
    Y_37        A_37           -100      
    Y_37        K_37_0         -100      
    Y_37        K_37_1         -100      
    Y_37        K_37_2         -100      
    Y_38        Obj            100       
    Y_38        A_38           -100      
    Y_38        K_38_0         -100      
    Y_38        K_38_1         -100      
    Y_38        K_38_2         -100      
    Y_39        Obj            100       
    Y_39        A_39           -100      
    Y_39        K_39_0         -100      
    Y_39        K_39_1         -100      
    Y_39        K_39_2         -100      
    MARK0000  'MARKER'                 'INTEND'
RHS
    rhs         N_3_0          -73       
    rhs         N_3_1          -18       
    rhs         N_3_2          -112      
    rhs         N_5_0          50        
    rhs         N_5_1          55        
    rhs         N_5_2          40        
    rhs         N_6_0          -58       
    rhs         N_6_1          -71       
    rhs         N_6_2          -68       
    rhs         N_7_0          57        
    rhs         N_7_1          49        
    rhs         N_7_2          76        
    rhs         N_8_0          45        
    rhs         N_8_1          23        
    rhs         N_8_2          13        
    rhs         N_10_0         48        
    rhs         N_10_1         73        
    rhs         N_10_2         71        
    rhs         N_11_0         -69       
    rhs         N_11_1         -111      
    rhs         N_11_2         -20       
BOUNDS
 BV BOUND       Y_0            
 BV BOUND       Y_1            
 BV BOUND       Y_2            
 BV BOUND       Y_3            
 BV BOUND       Y_4            
 BV BOUND       Y_5            
 BV BOUND       Y_6            
 BV BOUND       Y_7            
 BV BOUND       Y_8            
 BV BOUND       Y_9            
 BV BOUND       Y_10           
 BV BOUND       Y_11           
 BV BOUND       Y_12           
 BV BOUND       Y_13           
 BV BOUND       Y_14           
 BV BOUND       Y_15           
 BV BOUND       Y_16           
 BV BOUND       Y_17           
 BV BOUND       Y_18           
 BV BOUND       Y_19           
 BV BOUND       Y_20           
 BV BOUND       Y_21           
 BV BOUND       Y_22           
 BV BOUND       Y_23           
 BV BOUND       Y_24           
 BV BOUND       Y_25           
 BV BOUND       Y_26           
 BV BOUND       Y_27           
 BV BOUND       Y_28           
 BV BOUND       Y_29           
 BV BOUND       Y_30           
 BV BOUND       Y_31           
 BV BOUND       Y_32           
 BV BOUND       Y_33           
 BV BOUND       Y_34           
 BV BOUND       Y_35           
 BV BOUND       Y_36           
 BV BOUND       Y_37           
 BV BOUND       Y_38           
 BV BOUND       Y_39           
ENDATA
